letting numberLocations be  30
letting costs be function (
(0,0) --> 0,
(0,1) --> 70,
(0,2) --> 92,
(0,3) --> 57,
(0,4) --> 44,
(0,5) --> 45,
(0,6) --> 54,
(0,7) --> 50,
(0,8) --> 48,
(0,9) --> 53,
(0,10) --> 93,
(0,11) --> 69,
(0,12) --> 49,
(0,13) --> 53,
(0,14) --> 71,
(0,15) --> 70,
(0,16) --> 43,
(0,17) --> 53,
(0,18) --> 43,
(0,19) --> 70,
(0,20) --> 92,
(0,21) --> 38,
(0,22) --> 50,
(0,23) --> 50,
(0,24) --> 69,
(0,25) --> 44,
(0,26) --> 49,
(0,27) --> 94,
(0,28) --> 49,
(0,29) --> 47,
(0,30) --> 50,
(1,0) --> 70,
(1,1) --> 0,
(1,2) --> 76,
(1,3) --> 16,
(1,4) --> 28,
(1,5) --> 37,
(1,6) --> 18,
(1,7) --> 20,
(1,8) --> 22,
(1,9) --> 18,
(1,10) --> 78,
(1,11) --> 6,
(1,12) --> 21,
(1,13) --> 18,
(1,14) --> 10,
(1,15) --> 7,
(1,16) --> 39,
(1,17) --> 18,
(1,18) --> 38,
(1,19) --> 2,
(1,20) --> 78,
(1,21) --> 39,
(1,22) --> 21,
(1,23) --> 20,
(1,24) --> 4,
(1,25) --> 37,
(1,26) --> 22,
(1,27) --> 79,
(1,28) --> 22,
(1,29) --> 24,
(1,30) --> 20,
(2,0) --> 92,
(2,1) --> 76,
(2,2) --> 0,
(2,3) --> 83,
(2,4) --> 82,
(2,5) --> 96,
(2,6) --> 80,
(2,7) --> 76,
(2,8) --> 74,
(2,9) --> 79,
(2,10) --> 2,
(2,11) --> 69,
(2,12) --> 73,
(2,13) --> 77,
(2,14) --> 66,
(2,15) --> 69,
(2,16) --> 96,
(2,17) --> 77,
(2,18) --> 96,
(2,19) --> 73,
(2,20) --> 4,
(2,21) --> 92,
(2,22) --> 79,
(2,23) --> 75,
(2,24) --> 71,
(2,25) --> 95,
(2,26) --> 69,
(2,27) --> 3,
(2,28) --> 70,
(2,29) --> 79,
(2,30) --> 76,
(3,0) --> 57,
(3,1) --> 16,
(3,2) --> 83,
(3,3) --> 0,
(3,4) --> 13,
(3,5) --> 21,
(3,6) --> 4,
(3,7) --> 9,
(3,8) --> 12,
(3,9) --> 5,
(3,10) --> 85,
(3,11) --> 19,
(3,12) --> 12,
(3,13) --> 6,
(3,14) --> 23,
(3,15) --> 21,
(3,16) --> 23,
(3,17) --> 6,
(3,18) --> 22,
(3,19) --> 17,
(3,20) --> 85,
(3,21) --> 23,
(3,22) --> 8,
(3,23) --> 10,
(3,24) --> 18,
(3,25) --> 21,
(3,26) --> 16,
(3,27) --> 86,
(3,28) --> 15,
(3,29) --> 10,
(3,30) --> 9,
(4,0) --> 44,
(4,1) --> 28,
(4,2) --> 82,
(4,3) --> 13,
(4,4) --> 0,
(4,5) --> 14,
(4,6) --> 10,
(4,7) --> 8,
(4,8) --> 9,
(4,9) --> 9,
(4,10) --> 84,
(4,11) --> 29,
(4,12) --> 10,
(4,13) --> 10,
(4,14) --> 32,
(4,15) --> 30,
(4,16) --> 15,
(4,17) --> 10,
(4,18) --> 15,
(4,19) --> 28,
(4,20) --> 84,
(4,21) --> 12,
(4,22) --> 7,
(4,23) --> 9,
(4,24) --> 28,
(4,25) --> 13,
(4,26) --> 14,
(4,27) --> 85,
(4,28) --> 13,
(4,29) --> 4,
(4,30) --> 8,
(5,0) --> 45,
(5,1) --> 37,
(5,2) --> 96,
(5,3) --> 21,
(5,4) --> 14,
(5,5) --> 0,
(5,6) --> 20,
(5,7) --> 22,
(5,8) --> 23,
(5,9) --> 20,
(5,10) --> 98,
(5,11) --> 40,
(5,12) --> 24,
(5,13) --> 22,
(5,14) --> 43,
(5,15) --> 41,
(5,16) --> 3,
(5,17) --> 22,
(5,18) --> 2,
(5,19) --> 37,
(5,20) --> 98,
(5,21) --> 8,
(5,22) --> 19,
(5,23) --> 22,
(5,24) --> 38,
(5,25) --> 1,
(5,26) --> 28,
(5,27) --> 99,
(5,28) --> 27,
(5,29) --> 18,
(5,30) --> 22,
(6,0) --> 54,
(6,1) --> 18,
(6,2) --> 80,
(6,3) --> 4,
(6,4) --> 10,
(6,5) --> 20,
(6,6) --> 0,
(6,7) --> 6,
(6,8) --> 8,
(6,9) --> 1,
(6,10) --> 82,
(6,11) --> 20,
(6,12) --> 9,
(6,13) --> 3,
(6,14) --> 23,
(6,15) --> 21,
(6,16) --> 22,
(6,17) --> 3,
(6,18) --> 21,
(6,19) --> 18,
(6,20) --> 83,
(6,21) --> 21,
(6,22) --> 4,
(6,23) --> 6,
(6,24) --> 18,
(6,25) --> 20,
(6,26) --> 13,
(6,27) --> 83,
(6,28) --> 12,
(6,29) --> 7,
(6,30) --> 6,
(7,0) --> 50,
(7,1) --> 20,
(7,2) --> 76,
(7,3) --> 9,
(7,4) --> 8,
(7,5) --> 22,
(7,6) --> 6,
(7,7) --> 0,
(7,8) --> 3,
(7,9) --> 4,
(7,10) --> 78,
(7,11) --> 21,
(7,12) --> 3,
(7,13) --> 3,
(7,14) --> 24,
(7,15) --> 22,
(7,16) --> 23,
(7,17) --> 3,
(7,18) --> 22,
(7,19) --> 20,
(7,20) --> 78,
(7,21) --> 21,
(7,22) --> 3,
(7,23) --> 1,
(7,24) --> 20,
(7,25) --> 21,
(7,26) --> 7,
(7,27) --> 79,
(7,28) --> 6,
(7,29) --> 4,
(7,30) --> 0,
(8,0) --> 48,
(8,1) --> 22,
(8,2) --> 74,
(8,3) --> 12,
(8,4) --> 9,
(8,5) --> 23,
(8,6) --> 8,
(8,7) --> 3,
(8,8) --> 0,
(8,9) --> 7,
(8,10) --> 76,
(8,11) --> 22,
(8,12) --> 1,
(8,13) --> 6,
(8,14) --> 24,
(8,15) --> 23,
(8,16) --> 24,
(8,17) --> 6,
(8,18) --> 23,
(8,19) --> 21,
(8,20) --> 76,
(8,21) --> 21,
(8,22) --> 5,
(8,23) --> 2,
(8,24) --> 21,
(8,25) --> 22,
(8,26) --> 5,
(8,27) --> 77,
(8,28) --> 4,
(8,29) --> 5,
(8,30) --> 3,
(9,0) --> 53,
(9,1) --> 18,
(9,2) --> 79,
(9,3) --> 5,
(9,4) --> 9,
(9,5) --> 20,
(9,6) --> 1,
(9,7) --> 4,
(9,8) --> 7,
(9,9) --> 0,
(9,10) --> 81,
(9,11) --> 20,
(9,12) --> 7,
(9,13) --> 2,
(9,14) --> 23,
(9,15) --> 21,
(9,16) --> 22,
(9,17) --> 2,
(9,18) --> 21,
(9,19) --> 18,
(9,20) --> 81,
(9,21) --> 21,
(9,22) --> 3,
(9,23) --> 5,
(9,24) --> 19,
(9,25) --> 20,
(9,26) --> 11,
(9,27) --> 82,
(9,28) --> 10,
(9,29) --> 6,
(9,30) --> 4,
(10,0) --> 93,
(10,1) --> 78,
(10,2) --> 2,
(10,3) --> 85,
(10,4) --> 84,
(10,5) --> 98,
(10,6) --> 82,
(10,7) --> 78,
(10,8) --> 76,
(10,9) --> 81,
(10,10) --> 0,
(10,11) --> 71,
(10,12) --> 75,
(10,13) --> 79,
(10,14) --> 68,
(10,15) --> 71,
(10,16) --> 98,
(10,17) --> 79,
(10,18) --> 98,
(10,19) --> 76,
(10,20) --> 2,
(10,21) --> 94,
(10,22) --> 81,
(10,23) --> 77,
(10,24) --> 73,
(10,25) --> 97,
(10,26) --> 71,
(10,27) --> 1,
(10,28) --> 72,
(10,29) --> 81,
(10,30) --> 78,
(11,0) --> 69,
(11,1) --> 6,
(11,2) --> 69,
(11,3) --> 19,
(11,4) --> 29,
(11,5) --> 40,
(11,6) --> 20,
(11,7) --> 21,
(11,8) --> 22,
(11,9) --> 20,
(11,10) --> 71,
(11,11) --> 0,
(11,12) --> 20,
(11,13) --> 19,
(11,14) --> 4,
(11,15) --> 1,
(11,16) --> 42,
(11,17) --> 19,
(11,18) --> 41,
(11,19) --> 4,
(11,20) --> 72,
(11,21) --> 41,
(11,22) --> 22,
(11,23) --> 20,
(11,24) --> 2,
(11,25) --> 40,
(11,26) --> 20,
(11,27) --> 72,
(11,28) --> 20,
(11,29) --> 25,
(11,30) --> 21,
(12,0) --> 49,
(12,1) --> 21,
(12,2) --> 73,
(12,3) --> 12,
(12,4) --> 10,
(12,5) --> 24,
(12,6) --> 9,
(12,7) --> 3,
(12,8) --> 1,
(12,9) --> 7,
(12,10) --> 75,
(12,11) --> 20,
(12,12) --> 0,
(12,13) --> 6,
(12,14) --> 23,
(12,15) --> 22,
(12,16) --> 25,
(12,17) --> 6,
(12,18) --> 25,
(12,19) --> 20,
(12,20) --> 75,
(12,21) --> 22,
(12,22) --> 6,
(12,23) --> 2,
(12,24) --> 20,
(12,25) --> 23,
(12,26) --> 4,
(12,27) --> 76,
(12,28) --> 3,
(12,29) --> 6,
(12,30) --> 3,
(13,0) --> 53,
(13,1) --> 18,
(13,2) --> 77,
(13,3) --> 6,
(13,4) --> 10,
(13,5) --> 22,
(13,6) --> 3,
(13,7) --> 3,
(13,8) --> 6,
(13,9) --> 2,
(13,10) --> 79,
(13,11) --> 19,
(13,12) --> 6,
(13,13) --> 0,
(13,14) --> 22,
(13,15) --> 20,
(13,16) --> 24,
(13,17) --> 0,
(13,18) --> 23,
(13,19) --> 17,
(13,20) --> 80,
(13,21) --> 22,
(13,22) --> 4,
(13,23) --> 4,
(13,24) --> 17,
(13,25) --> 22,
(13,26) --> 9,
(13,27) --> 80,
(13,28) --> 9,
(13,29) --> 6,
(13,30) --> 3,
(14,0) --> 71,
(14,1) --> 10,
(14,2) --> 66,
(14,3) --> 23,
(14,4) --> 32,
(14,5) --> 43,
(14,6) --> 23,
(14,7) --> 24,
(14,8) --> 24,
(14,9) --> 23,
(14,10) --> 68,
(14,11) --> 4,
(14,12) --> 23,
(14,13) --> 22,
(14,14) --> 0,
(14,15) --> 3,
(14,16) --> 45,
(14,17) --> 22,
(14,18) --> 45,
(14,19) --> 8,
(14,20) --> 69,
(14,21) --> 44,
(14,22) --> 25,
(14,23) --> 23,
(14,24) --> 6,
(14,25) --> 43,
(14,26) --> 22,
(14,27) --> 69,
(14,28) --> 22,
(14,29) --> 28,
(14,30) --> 24,
(15,0) --> 70,
(15,1) --> 7,
(15,2) --> 69,
(15,3) --> 21,
(15,4) --> 30,
(15,5) --> 41,
(15,6) --> 21,
(15,7) --> 22,
(15,8) --> 23,
(15,9) --> 21,
(15,10) --> 71,
(15,11) --> 1,
(15,12) --> 22,
(15,13) --> 20,
(15,14) --> 3,
(15,15) --> 0,
(15,16) --> 43,
(15,17) --> 20,
(15,18) --> 42,
(15,19) --> 5,
(15,20) --> 72,
(15,21) --> 42,
(15,22) --> 24,
(15,23) --> 21,
(15,24) --> 3,
(15,25) --> 41,
(15,26) --> 21,
(15,27) --> 72,
(15,28) --> 22,
(15,29) --> 26,
(15,30) --> 22,
(16,0) --> 43,
(16,1) --> 39,
(16,2) --> 96,
(16,3) --> 23,
(16,4) --> 15,
(16,5) --> 3,
(16,6) --> 22,
(16,7) --> 23,
(16,8) --> 24,
(16,9) --> 22,
(16,10) --> 98,
(16,11) --> 42,
(16,12) --> 25,
(16,13) --> 24,
(16,14) --> 45,
(16,15) --> 43,
(16,16) --> 0,
(16,17) --> 24,
(16,18) --> 1,
(16,19) --> 40,
(16,20) --> 98,
(16,21) --> 6,
(16,22) --> 20,
(16,23) --> 24,
(16,24) --> 40,
(16,25) --> 2,
(16,26) --> 28,
(16,27) --> 99,
(16,28) --> 28,
(16,29) --> 19,
(16,30) --> 23,
(17,0) --> 53,
(17,1) --> 18,
(17,2) --> 77,
(17,3) --> 6,
(17,4) --> 10,
(17,5) --> 22,
(17,6) --> 3,
(17,7) --> 3,
(17,8) --> 6,
(17,9) --> 2,
(17,10) --> 79,
(17,11) --> 19,
(17,12) --> 6,
(17,13) --> 0,
(17,14) --> 22,
(17,15) --> 20,
(17,16) --> 24,
(17,17) --> 0,
(17,18) --> 23,
(17,19) --> 17,
(17,20) --> 80,
(17,21) --> 22,
(17,22) --> 4,
(17,23) --> 4,
(17,24) --> 17,
(17,25) --> 22,
(17,26) --> 9,
(17,27) --> 80,
(17,28) --> 9,
(17,29) --> 6,
(17,30) --> 3,
(18,0) --> 43,
(18,1) --> 38,
(18,2) --> 96,
(18,3) --> 22,
(18,4) --> 15,
(18,5) --> 2,
(18,6) --> 21,
(18,7) --> 22,
(18,8) --> 23,
(18,9) --> 21,
(18,10) --> 98,
(18,11) --> 41,
(18,12) --> 25,
(18,13) --> 23,
(18,14) --> 45,
(18,15) --> 42,
(18,16) --> 1,
(18,17) --> 23,
(18,18) --> 0,
(18,19) --> 39,
(18,20) --> 98,
(18,21) --> 6,
(18,22) --> 20,
(18,23) --> 23,
(18,24) --> 40,
(18,25) --> 1,
(18,26) --> 28,
(18,27) --> 99,
(18,28) --> 27,
(18,29) --> 18,
(18,30) --> 22,
(19,0) --> 70,
(19,1) --> 2,
(19,2) --> 73,
(19,3) --> 17,
(19,4) --> 28,
(19,5) --> 37,
(19,6) --> 18,
(19,7) --> 20,
(19,8) --> 21,
(19,9) --> 18,
(19,10) --> 76,
(19,11) --> 4,
(19,12) --> 20,
(19,13) --> 17,
(19,14) --> 8,
(19,15) --> 5,
(19,16) --> 40,
(19,17) --> 17,
(19,18) --> 39,
(19,19) --> 0,
(19,20) --> 76,
(19,21) --> 39,
(19,22) --> 21,
(19,23) --> 20,
(19,24) --> 2,
(19,25) --> 38,
(19,26) --> 21,
(19,27) --> 77,
(19,28) --> 21,
(19,29) --> 24,
(19,30) --> 20,
(20,0) --> 92,
(20,1) --> 78,
(20,2) --> 4,
(20,3) --> 85,
(20,4) --> 84,
(20,5) --> 98,
(20,6) --> 83,
(20,7) --> 78,
(20,8) --> 76,
(20,9) --> 81,
(20,10) --> 2,
(20,11) --> 72,
(20,12) --> 75,
(20,13) --> 80,
(20,14) --> 69,
(20,15) --> 72,
(20,16) --> 98,
(20,17) --> 80,
(20,18) --> 98,
(20,19) --> 76,
(20,20) --> 0,
(20,21) --> 93,
(20,22) --> 81,
(20,23) --> 77,
(20,24) --> 74,
(20,25) --> 97,
(20,26) --> 71,
(20,27) --> 2,
(20,28) --> 72,
(20,29) --> 81,
(20,30) --> 78,
(21,0) --> 38,
(21,1) --> 39,
(21,2) --> 92,
(21,3) --> 23,
(21,4) --> 12,
(21,5) --> 8,
(21,6) --> 21,
(21,7) --> 21,
(21,8) --> 21,
(21,9) --> 21,
(21,10) --> 94,
(21,11) --> 41,
(21,12) --> 22,
(21,13) --> 22,
(21,14) --> 44,
(21,15) --> 42,
(21,16) --> 6,
(21,17) --> 22,
(21,18) --> 6,
(21,19) --> 39,
(21,20) --> 93,
(21,21) --> 0,
(21,22) --> 18,
(21,23) --> 21,
(21,24) --> 39,
(21,25) --> 6,
(21,26) --> 25,
(21,27) --> 95,
(21,28) --> 24,
(21,29) --> 16,
(21,30) --> 21,
(22,0) --> 50,
(22,1) --> 21,
(22,2) --> 79,
(22,3) --> 8,
(22,4) --> 7,
(22,5) --> 19,
(22,6) --> 4,
(22,7) --> 3,
(22,8) --> 5,
(22,9) --> 3,
(22,10) --> 81,
(22,11) --> 22,
(22,12) --> 6,
(22,13) --> 4,
(22,14) --> 25,
(22,15) --> 24,
(22,16) --> 20,
(22,17) --> 4,
(22,18) --> 20,
(22,19) --> 21,
(22,20) --> 81,
(22,21) --> 18,
(22,22) --> 0,
(22,23) --> 4,
(22,24) --> 21,
(22,25) --> 18,
(22,26) --> 10,
(22,27) --> 82,
(22,28) --> 9,
(22,29) --> 3,
(22,30) --> 3,
(23,0) --> 50,
(23,1) --> 20,
(23,2) --> 75,
(23,3) --> 10,
(23,4) --> 9,
(23,5) --> 22,
(23,6) --> 6,
(23,7) --> 1,
(23,8) --> 2,
(23,9) --> 5,
(23,10) --> 77,
(23,11) --> 20,
(23,12) --> 2,
(23,13) --> 4,
(23,14) --> 23,
(23,15) --> 21,
(23,16) --> 24,
(23,17) --> 4,
(23,18) --> 23,
(23,19) --> 20,
(23,20) --> 77,
(23,21) --> 21,
(23,22) --> 4,
(23,23) --> 0,
(23,24) --> 19,
(23,25) --> 22,
(23,26) --> 6,
(23,27) --> 78,
(23,28) --> 5,
(23,29) --> 5,
(23,30) --> 1,
(24,0) --> 69,
(24,1) --> 4,
(24,2) --> 71,
(24,3) --> 18,
(24,4) --> 28,
(24,5) --> 38,
(24,6) --> 18,
(24,7) --> 20,
(24,8) --> 21,
(24,9) --> 19,
(24,10) --> 73,
(24,11) --> 2,
(24,12) --> 20,
(24,13) --> 17,
(24,14) --> 6,
(24,15) --> 3,
(24,16) --> 40,
(24,17) --> 17,
(24,18) --> 40,
(24,19) --> 2,
(24,20) --> 74,
(24,21) --> 39,
(24,22) --> 21,
(24,23) --> 19,
(24,24) --> 0,
(24,25) --> 38,
(24,26) --> 20,
(24,27) --> 74,
(24,28) --> 20,
(24,29) --> 24,
(24,30) --> 20,
(25,0) --> 44,
(25,1) --> 37,
(25,2) --> 95,
(25,3) --> 21,
(25,4) --> 13,
(25,5) --> 1,
(25,6) --> 20,
(25,7) --> 21,
(25,8) --> 22,
(25,9) --> 20,
(25,10) --> 97,
(25,11) --> 40,
(25,12) --> 23,
(25,13) --> 22,
(25,14) --> 43,
(25,15) --> 41,
(25,16) --> 2,
(25,17) --> 22,
(25,18) --> 1,
(25,19) --> 38,
(25,20) --> 97,
(25,21) --> 6,
(25,22) --> 18,
(25,23) --> 22,
(25,24) --> 38,
(25,25) --> 0,
(25,26) --> 27,
(25,27) --> 98,
(25,28) --> 26,
(25,29) --> 17,
(25,30) --> 21,
(26,0) --> 49,
(26,1) --> 22,
(26,2) --> 69,
(26,3) --> 16,
(26,4) --> 14,
(26,5) --> 28,
(26,6) --> 13,
(26,7) --> 7,
(26,8) --> 5,
(26,9) --> 11,
(26,10) --> 71,
(26,11) --> 20,
(26,12) --> 4,
(26,13) --> 9,
(26,14) --> 22,
(26,15) --> 21,
(26,16) --> 28,
(26,17) --> 9,
(26,18) --> 28,
(26,19) --> 21,
(26,20) --> 71,
(26,21) --> 25,
(26,22) --> 10,
(26,23) --> 6,
(26,24) --> 20,
(26,25) --> 27,
(26,26) --> 0,
(26,27) --> 72,
(26,28) --> 1,
(26,29) --> 10,
(26,30) --> 7,
(27,0) --> 94,
(27,1) --> 79,
(27,2) --> 3,
(27,3) --> 86,
(27,4) --> 85,
(27,5) --> 99,
(27,6) --> 83,
(27,7) --> 79,
(27,8) --> 77,
(27,9) --> 82,
(27,10) --> 1,
(27,11) --> 72,
(27,12) --> 76,
(27,13) --> 80,
(27,14) --> 69,
(27,15) --> 72,
(27,16) --> 99,
(27,17) --> 80,
(27,18) --> 99,
(27,19) --> 77,
(27,20) --> 2,
(27,21) --> 95,
(27,22) --> 82,
(27,23) --> 78,
(27,24) --> 74,
(27,25) --> 98,
(27,26) --> 72,
(27,27) --> 0,
(27,28) --> 73,
(27,29) --> 82,
(27,30) --> 79,
(28,0) --> 49,
(28,1) --> 22,
(28,2) --> 70,
(28,3) --> 15,
(28,4) --> 13,
(28,5) --> 27,
(28,6) --> 12,
(28,7) --> 6,
(28,8) --> 4,
(28,9) --> 10,
(28,10) --> 72,
(28,11) --> 20,
(28,12) --> 3,
(28,13) --> 9,
(28,14) --> 22,
(28,15) --> 22,
(28,16) --> 28,
(28,17) --> 9,
(28,18) --> 27,
(28,19) --> 21,
(28,20) --> 72,
(28,21) --> 24,
(28,22) --> 9,
(28,23) --> 5,
(28,24) --> 20,
(28,25) --> 26,
(28,26) --> 1,
(28,27) --> 73,
(28,28) --> 0,
(28,29) --> 9,
(28,30) --> 6,
(29,0) --> 47,
(29,1) --> 24,
(29,2) --> 79,
(29,3) --> 10,
(29,4) --> 4,
(29,5) --> 18,
(29,6) --> 7,
(29,7) --> 4,
(29,8) --> 5,
(29,9) --> 6,
(29,10) --> 81,
(29,11) --> 25,
(29,12) --> 6,
(29,13) --> 6,
(29,14) --> 28,
(29,15) --> 26,
(29,16) --> 19,
(29,17) --> 6,
(29,18) --> 18,
(29,19) --> 24,
(29,20) --> 81,
(29,21) --> 16,
(29,22) --> 3,
(29,23) --> 5,
(29,24) --> 24,
(29,25) --> 17,
(29,26) --> 10,
(29,27) --> 82,
(29,28) --> 9,
(29,29) --> 0,
(29,30) --> 4,
(30,0) --> 50,
(30,1) --> 20,
(30,2) --> 76,
(30,3) --> 9,
(30,4) --> 8,
(30,5) --> 22,
(30,6) --> 6,
(30,7) --> 0,
(30,8) --> 3,
(30,9) --> 4,
(30,10) --> 78,
(30,11) --> 21,
(30,12) --> 3,
(30,13) --> 3,
(30,14) --> 24,
(30,15) --> 22,
(30,16) --> 23,
(30,17) --> 3,
(30,18) --> 22,
(30,19) --> 20,
(30,20) --> 78,
(30,21) --> 21,
(30,22) --> 3,
(30,23) --> 1,
(30,24) --> 20,
(30,25) --> 21,
(30,26) --> 7,
(30,27) --> 79,
(30,28) --> 6,
(30,29) --> 4,
(30,30) --> 0)
letting orderWeights be function (
1 --> 25
,
2 --> 3
,
3 --> 13
,
4 --> 17
,
5 --> 16
,
6 --> 9
,
7 --> 22
,
8 --> 10
,
9 --> 16
,
10 --> 8
,
11 --> 3
,
12 --> 16
,
13 --> 16
,
14 --> 10
,
15 --> 24
,
16 --> 16
,
17 --> 15
,
18 --> 14
,
19 --> 5
,
20 --> 12
,
21 --> 2
,
22 --> 18
,
23 --> 20
,
24 --> 15
,
25 --> 8
,
26 --> 22
,
27 --> 15
,
28 --> 10
,
29 --> 13
,
30 --> 19
)
letting vehicleCapacity be 100
